15	4	2
5574	5574	5574	5574	
314	174	324	
522	849	1521	
327	450	558	
116	544	810	
432	458	494	
315	351	565	
711	724	1147	
834	779	969	
217	898	1383	
337	795	944	
603	56	57	
692	636	992	
238	115	157	
59	503	591	
749	101	152	
